AES/1_5_4/ssaes_r1-20_c5_rw1_e4_f0_k1-20_aes_canon_box_aes_mc_bidirectional/ExperimentMinisat_r14_k8cnf_2011-10-29-161723/Result
WARNING: for repeatability, setting FPU to use double precision
============================[ Problem Statistics ]=============================
|                                                                             |
|  Number of variables:          2636                                         |
|  Number of clauses:           15620                                         |
|  Parse time:                   0.01 s                                       |
|  Eliminated clauses:           0.02 Mb                                      |
|  Simplification time:          0.01 s                                       |
|                                                                             |
=============================[ Search Statistics ]==============================
| Conflicts  |          ORIGINAL         |          LEARNT          | Progress |
|            |    Vars  Clauses Literals |    Limit  Clauses Lit/Cl |          |
================================================================================
|        100 |    2156    14212    44108 |     5211      100     35 |  3.642 % |
|        250 |    2156    14212    44108 |     5732      250     46 |  3.642 % |
|        475 |    2156    14212    44108 |     6305      475     41 |  3.642 % |
|        812 |    2156    14212    44108 |     6935      812     43 |  3.642 % |
|       1318 |    2156    14212    44108 |     7629     1318     44 |  3.642 % |
|       2077 |    2156    14212    44108 |     8392     2077     42 |  3.642 % |
|       3216 |    2156    14212    44108 |     9231     3216     39 |  3.642 % |
|       4924 |    2156    14212    44108 |    10154     4924     39 |  3.642 % |
|       7486 |    2156    14212    44108 |    11170     7486     37 |  3.642 % |
|      11330 |    2156    14212    44108 |    12287     5669     32 |  3.642 % |
|      17096 |    2156    14212    44108 |    13516    11435     34 |  3.642 % |
|      25745 |    2156    14212    44108 |    14867    13249     32 |  3.642 % |
|      38719 |    2156    14212    44108 |    16354    11162     27 |  3.642 % |
|      58180 |    2156    14212    44108 |    17990    14074     29 |  3.642 % |
|      87372 |    2156    14212    44108 |    19789    15981     26 |  3.642 % |
|     131161 |    2156    14212    44108 |    21767    19777     28 |  3.642 % |
|     196845 |    2156    14212    44108 |    23944    19607     26 |  3.642 % |
|     295371 |    2156    14212    44108 |    26339    21584     27 |  3.642 % |
|     443160 |    2156    14212    44108 |    28973    23540     25 |  3.642 % |
|     664843 |    2156    14212    44108 |    31870    26517     25 |  3.642 % |
|     997368 |    2156    14212    44108 |    35057    20285     23 |  3.642 % |
|    1496156 |    2156    14212    44108 |    38563    25340     27 |  3.642 % |
|    2244338 |    2156    14212    44108 |    42419    17230     23 |  3.642 % |
|    3366612 |    2156    14212    44108 |    46661    25024     26 |  3.642 % |
===============================================================================
restarts              : 8136
conflicts             : 4501031        (4708 /sec)
decisions             : 4874692        (0.00 % random) (5099 /sec)
propagations          : 5035015115     (5266451 /sec)
conflict literals     : 129555936      (67.32 % deleted)
Memory used           : 26.00 MB
CPU time              : 956.055 s

SATISFIABLE
